NAME : OCPPP0717-kernel50-1.gtsp.11460.tour
COMMENT : Length = 11460
COMMENT : Found by GLKH [Keld Helsgaun] Thu Aug  4 14:03:32 2022
TYPE : TOUR
DIMENSION : 25
TOUR_SECTION
1
49
12
42
13
31
22
34
3
48
24
37
19
39
6
25
44
16
29
7
28
9
36
18
45
-1
EOF
